# Objective value = 129
WA1n 0
WA1p 0
WA2n 1
WA2p 0
WB1n 0
WB1p 0
WB2n 1
WB2p 0
WC1n 0
WC1p 0
WC2n 0
WC2p 1
WD1n 0
WD1p 1
WD2n 0
WD2p 1
WE1n 0
WE1p 1
WE2n 0
WE2p 1
WF1n 0
WF1p 1
WF2n 0
WF2p 1
WG1n 5
WG1p 0
WH1n 0
WH1p 5
WI1n 11
WI1p 0
WI2n 1
WI2p 0
WJ1n 0
WJ1p 11
WJ2n 0
WJ2p 1
WK1n 28
WK1p 0
WL1n 0
WL1p 28
WT1n 0
WT1p 22
5 7
a 0
b 0
c 0
d 0
e 0
f 1
g 1
h 1
i 1
j 1
k 1
l 1
m 0
n 1
o 0
p 0
q 1
r 1
s 0
t 1
u 1
